c 
c U(n,d) graph
c graph gen seed     : 712
c number of vertices : 70
c max number of edges: 2415
c Euclidean distance : 0.200000
c data structure     : sparse
c
c           Graph Stats
c number of vertices  : 70
c nonisolated vertices: 70
c number of edges     : 237
c edge density        : 0.098137
c max degree          : 15
c avg degree          : 6.77
c min degree          : 2
p col 70 237
e 1 67
e 1 56
e 1 52
e 1 51
e 1 33
e 1 24
e 1 20
e 1 13
e 1 10
e 1 9
e 1 6
e 2 65
e 2 61
e 2 55
e 2 42
e 2 39
e 2 36
e 2 23
e 3 70
e 3 67
e 3 41
e 3 27
e 3 20
e 3 6
e 4 59
e 4 56
e 4 51
e 4 50
e 4 43
e 4 33
e 4 32
e 4 31
e 4 26
e 4 13
e 4 7
e 5 64
e 5 62
e 5 38
e 5 17
e 5 15
e 6 67
e 6 20
e 6 19
e 6 10
e 7 59
e 7 43
e 7 32
e 7 26
e 8 66
e 8 44
e 8 30
e 8 28
e 8 24
e 8 18
e 8 11
e 8 9
e 9 66
e 9 52
e 9 24
e 9 20
e 9 18
e 9 10
e 10 67
e 10 52
e 10 24
e 10 20
e 11 56
e 11 51
e 11 50
e 11 44
e 11 43
e 11 28
e 11 26
e 11 24
e 11 18
e 11 13
e 12 60
e 12 54
e 12 40
e 12 29
e 12 22
e 13 59
e 13 56
e 13 52
e 13 51
e 13 50
e 13 43
e 13 33
e 13 32
e 13 31
e 13 26
e 13 24
e 14 66
e 14 60
e 14 34
e 15 64
e 15 62
e 15 38
e 15 17
e 16 69
e 16 46
e 16 45
e 16 29
e 17 64
e 17 62
e 17 38
e 18 66
e 18 52
e 18 44
e 18 30
e 18 28
e 18 24
e 19 68
e 19 67
e 19 47
e 19 35
e 20 67
e 20 52
e 20 41
e 21 59
e 21 35
e 21 32
e 21 31
e 22 64
e 22 60
e 22 54
e 22 40
e 22 38
e 22 29
e 23 61
e 23 55
e 23 42
e 23 39
e 23 36
e 24 56
e 24 52
e 24 51
e 24 50
e 24 43
e 24 33
e 24 28
e 24 26
e 25 47
e 25 46
e 25 37
e 25 27
e 26 56
e 26 51
e 26 50
e 26 44
e 26 43
e 26 28
e 27 70
e 27 41
e 27 37
e 28 50
e 28 44
e 28 43
e 29 60
e 29 54
e 30 66
e 31 68
e 31 59
e 31 56
e 31 51
e 31 35
e 31 33
e 31 32
e 32 59
e 32 56
e 32 51
e 32 33
e 33 68
e 33 67
e 33 59
e 33 56
e 33 52
e 33 51
e 34 60
e 34 40
e 35 68
e 36 63
e 36 61
e 36 58
e 36 55
e 36 42
e 36 39
e 37 47
e 38 64
e 38 62
e 39 61
e 39 55
e 39 42
e 40 60
e 40 49
e 41 70
e 42 63
e 42 61
e 42 58
e 42 55
e 43 56
e 43 51
e 43 50
e 43 44
e 44 63
e 44 58
e 44 57
e 44 53
e 44 50
e 45 69
e 45 46
e 46 70
e 46 69
e 48 65
e 48 49
e 49 60
e 50 56
e 50 51
e 51 59
e 51 56
e 51 52
e 52 67
e 52 56
e 53 63
e 53 58
e 53 57
e 54 60
e 55 63
e 55 61
e 55 58
e 56 59
e 57 63
e 57 58
e 58 63
e 61 63
e 62 64
e 69 70
